(declare-fun b662 () (_ FloatingPoint 8 24))
(declare-fun b1084 () (_ FloatingPoint 8 24))
(declare-fun b1141 () (_ FloatingPoint 8 24))
(declare-fun b1554 () (_ FloatingPoint 8 24))
(declare-fun b1110 () (_ FloatingPoint 8 24))
(declare-fun b1246 () (_ FloatingPoint 8 24))
(declare-fun b1211 () (_ FloatingPoint 8 24))
(declare-fun b1421 () (_ FloatingPoint 8 24))
(declare-fun b1491 () (_ FloatingPoint 8 24))
(declare-fun b652 () (_ FloatingPoint 11 53))
(declare-fun b1545 () (_ FloatingPoint 8 24))
(declare-fun b174 () (_ FloatingPoint 11 53))
(declare-fun b1461 () (_ FloatingPoint 8 24))
(declare-fun b1089 () (_ FloatingPoint 8 24))
(declare-fun b1281 () (_ FloatingPoint 8 24))
(declare-fun b1316 () (_ FloatingPoint 8 24))
(declare-fun b1496 () (_ FloatingPoint 8 24))
(declare-fun b1526 () (_ FloatingPoint 8 24))
(declare-fun b176 () (_ FloatingPoint 8 24))
(declare-fun b1456 () (_ FloatingPoint 8 24))
(declare-fun b1216 () (_ FloatingPoint 8 24))
(declare-fun b169 () (_ FloatingPoint 8 24))
(declare-fun b1181 () (_ FloatingPoint 8 24))
(declare-fun b1351 () (_ FloatingPoint 8 24))
(declare-fun b1391 () (_ FloatingPoint 8 24))
(declare-fun b1426 () (_ FloatingPoint 8 24))
(declare-fun b185 () (_ FloatingPoint 11 53))
(declare-fun b1146 () (_ FloatingPoint 8 24))
(declare-fun b1356 () (_ FloatingPoint 8 24))
(declare-fun b1321 () (_ FloatingPoint 8 24))
(declare-fun b1251 () (_ FloatingPoint 8 24))
(declare-fun b171 () (_ FloatingPoint 8 24))
(declare-fun b1176 () (_ FloatingPoint 8 24))
(declare-fun b1286 () (_ FloatingPoint 8 24))
(declare-fun b1386 () (_ FloatingPoint 8 24))
(declare-fun b1105 () (_ FloatingPoint 8 24))
(assert (let ((.def_520 (fp.leq b1084 b662)))
(let ((.def_521 (not .def_520)))
(let ((.def_11 (fp.div RNE b169 b171)))
(let ((.def_12 ((_ to_fp 11 53) RNE .def_11)))
(let ((.def_14 (fp.mul RNE .def_12 b185)))
(let ((.def_15 (fp.mul RNE .def_11 .def_11)))
(let ((.def_16 (fp.neg .def_15)))
(let ((.def_17 (fp.add RNE b169 .def_16)))
(let ((.def_18 ((_ to_fp 11 53) RNE .def_17)))
(let ((.def_19 (fp.div RNE .def_18 .def_14)))
(let ((.def_20 ((_ to_fp 8 24) RNE .def_19)))
(let ((.def_21 (fp.add RNE .def_11 .def_20)))
(let ((.def_22 (fp.mul RNE .def_21 .def_21)))
(let ((.def_23 (fp.neg .def_22)))
(let ((.def_24 (fp.add RNE b169 .def_23)))
(let ((.def_25 ((_ to_fp 11 53) RNE .def_24)))
(let ((.def_26 ((_ to_fp 8 24) RNE .def_25)))
(let ((.def_516 (fp.neg .def_26)))
(let ((.def_517 (= b1554 .def_516)))
(let ((.def_513 (fp.leq b176 .def_26)))
(let ((.def_514 (not .def_513)))
(let ((.def_30 ((_ to_fp 11 53) RNE .def_21)))
(let ((.def_31 (fp.mul RNE b185 .def_30)))
(let ((.def_32 (fp.div RNE .def_25 .def_31)))
(let ((.def_33 ((_ to_fp 8 24) RNE .def_32)))
(let ((.def_34 (fp.add RNE .def_21 .def_33)))
(let ((.def_35 (fp.mul RNE .def_34 .def_34)))
(let ((.def_36 (fp.neg .def_35)))
(let ((.def_37 (fp.add RNE b169 .def_36)))
(let ((.def_38 ((_ to_fp 11 53) RNE .def_37)))
(let ((.def_39 ((_ to_fp 8 24) RNE .def_38)))
(let ((.def_509 (fp.neg .def_39)))
(let ((.def_510 (= b1545 .def_509)))
(let ((.def_506 (fp.leq b176 .def_39)))
(let ((.def_507 (not .def_506)))
(let ((.def_502 ((_ to_fp 11 53) RNE b1554)))
(let ((.def_503 (fp.leq .def_502 b174)))
(let ((.def_500 (= .def_21 b1496)))
(let ((.def_46 ((_ to_fp 11 53) RNE b1496)))
(let ((.def_47 (fp.mul RNE b185 .def_46)))
(let ((.def_48 (fp.mul RNE b1496 b1496)))
(let ((.def_49 (fp.neg .def_48)))
(let ((.def_50 (fp.add RNE b169 .def_49)))
(let ((.def_51 ((_ to_fp 11 53) RNE .def_50)))
(let ((.def_52 (fp.div RNE .def_51 .def_47)))
(let ((.def_53 ((_ to_fp 8 24) RNE .def_52)))
(let ((.def_54 (fp.add RNE b1496 .def_53)))
(let ((.def_55 (fp.mul RNE .def_54 .def_54)))
(let ((.def_56 (fp.neg .def_55)))
(let ((.def_57 (fp.add RNE b169 .def_56)))
(let ((.def_58 ((_ to_fp 11 53) RNE .def_57)))
(let ((.def_59 ((_ to_fp 8 24) RNE .def_58)))
(let ((.def_496 (fp.neg .def_59)))
(let ((.def_497 (= b1526 .def_496)))
(let ((.def_493 (fp.leq b176 .def_59)))
(let ((.def_494 (not .def_493)))
(let ((.def_489 ((_ to_fp 11 53) RNE b1526)))
(let ((.def_490 (fp.leq .def_489 b174)))
(let ((.def_491 (not .def_490)))
(let ((.def_486 (= b1496 b1461)))
(let ((.def_66 ((_ to_fp 11 53) RNE b1461)))
(let ((.def_67 (fp.mul RNE b185 .def_66)))
(let ((.def_68 (fp.mul RNE b1461 b1461)))
(let ((.def_69 (fp.neg .def_68)))
(let ((.def_70 (fp.add RNE b169 .def_69)))
(let ((.def_71 ((_ to_fp 11 53) RNE .def_70)))
(let ((.def_72 (fp.div RNE .def_71 .def_67)))
(let ((.def_73 ((_ to_fp 8 24) RNE .def_72)))
(let ((.def_74 (fp.add RNE b1461 .def_73)))
(let ((.def_75 (fp.mul RNE .def_74 .def_74)))
(let ((.def_76 (fp.neg .def_75)))
(let ((.def_77 (fp.add RNE b169 .def_76)))
(let ((.def_78 ((_ to_fp 11 53) RNE .def_77)))
(let ((.def_79 ((_ to_fp 8 24) RNE .def_78)))
(let ((.def_482 (fp.neg .def_79)))
(let ((.def_483 (= b1491 .def_482)))
(let ((.def_479 (fp.leq b176 .def_79)))
(let ((.def_480 (not .def_479)))
(let ((.def_475 ((_ to_fp 11 53) RNE b1491)))
(let ((.def_476 (fp.leq .def_475 b174)))
(let ((.def_477 (not .def_476)))
(let ((.def_84 ((_ to_fp 11 53) RNE b1426)))
(let ((.def_85 (fp.mul RNE b185 .def_84)))
(let ((.def_86 (fp.mul RNE b1426 b1426)))
(let ((.def_87 (fp.neg .def_86)))
(let ((.def_88 (fp.add RNE b169 .def_87)))
(let ((.def_89 ((_ to_fp 11 53) RNE .def_88)))
(let ((.def_90 (fp.div RNE .def_89 .def_85)))
(let ((.def_91 ((_ to_fp 8 24) RNE .def_90)))
(let ((.def_92 (fp.add RNE b1426 .def_91)))
(let ((.def_93 (fp.mul RNE .def_92 .def_92)))
(let ((.def_94 (fp.neg .def_93)))
(let ((.def_95 (fp.add RNE b169 .def_94)))
(let ((.def_96 ((_ to_fp 11 53) RNE .def_95)))
(let ((.def_97 ((_ to_fp 8 24) RNE .def_96)))
(let ((.def_471 (fp.neg .def_97)))
(let ((.def_472 (= b1456 .def_471)))
(let ((.def_468 (fp.leq b176 .def_97)))
(let ((.def_469 (not .def_468)))
(let ((.def_464 ((_ to_fp 11 53) RNE b1456)))
(let ((.def_465 (fp.leq .def_464 b174)))
(let ((.def_466 (not .def_465)))
(let ((.def_460 (= b1426 b1391)))
(let ((.def_458 (= b1461 b1426)))
(let ((.def_106 ((_ to_fp 11 53) RNE b1391)))
(let ((.def_107 (fp.mul RNE b185 .def_106)))
(let ((.def_108 (fp.mul RNE b1391 b1391)))
(let ((.def_109 (fp.neg .def_108)))
(let ((.def_110 (fp.add RNE b169 .def_109)))
(let ((.def_111 ((_ to_fp 11 53) RNE .def_110)))
(let ((.def_112 (fp.div RNE .def_111 .def_107)))
(let ((.def_113 ((_ to_fp 8 24) RNE .def_112)))
(let ((.def_114 (fp.add RNE b1391 .def_113)))
(let ((.def_115 (fp.mul RNE .def_114 .def_114)))
(let ((.def_116 (fp.neg .def_115)))
(let ((.def_117 (fp.add RNE b169 .def_116)))
(let ((.def_118 ((_ to_fp 11 53) RNE .def_117)))
(let ((.def_119 ((_ to_fp 8 24) RNE .def_118)))
(let ((.def_454 (fp.neg .def_119)))
(let ((.def_455 (= b1421 .def_454)))
(let ((.def_451 (fp.leq b176 .def_119)))
(let ((.def_452 (not .def_451)))
(let ((.def_447 ((_ to_fp 11 53) RNE b1421)))
(let ((.def_448 (fp.leq .def_447 b174)))
(let ((.def_449 (not .def_448)))
(let ((.def_444 (= b1391 b1356)))
(let ((.def_126 ((_ to_fp 11 53) RNE b1356)))
(let ((.def_127 (fp.mul RNE b185 .def_126)))
(let ((.def_128 (fp.mul RNE b1356 b1356)))
(let ((.def_129 (fp.neg .def_128)))
(let ((.def_130 (fp.add RNE b169 .def_129)))
(let ((.def_131 ((_ to_fp 11 53) RNE .def_130)))
(let ((.def_132 (fp.div RNE .def_131 .def_127)))
(let ((.def_133 ((_ to_fp 8 24) RNE .def_132)))
(let ((.def_134 (fp.add RNE b1356 .def_133)))
(let ((.def_135 (fp.mul RNE .def_134 .def_134)))
(let ((.def_136 (fp.neg .def_135)))
(let ((.def_137 (fp.add RNE b169 .def_136)))
(let ((.def_138 ((_ to_fp 11 53) RNE .def_137)))
(let ((.def_139 ((_ to_fp 8 24) RNE .def_138)))
(let ((.def_440 (fp.neg .def_139)))
(let ((.def_441 (= b1386 .def_440)))
(let ((.def_437 (fp.leq b176 .def_139)))
(let ((.def_438 (not .def_437)))
(let ((.def_433 ((_ to_fp 11 53) RNE b1386)))
(let ((.def_434 (fp.leq .def_433 b174)))
(let ((.def_435 (not .def_434)))
(let ((.def_430 (= b1356 b1321)))
(let ((.def_146 ((_ to_fp 11 53) RNE b1321)))
(let ((.def_147 (fp.mul RNE b185 .def_146)))
(let ((.def_148 (fp.mul RNE b1321 b1321)))
(let ((.def_149 (fp.neg .def_148)))
(let ((.def_150 (fp.add RNE b169 .def_149)))
(let ((.def_151 ((_ to_fp 11 53) RNE .def_150)))
(let ((.def_152 (fp.div RNE .def_151 .def_147)))
(let ((.def_153 ((_ to_fp 8 24) RNE .def_152)))
(let ((.def_154 (fp.add RNE b1321 .def_153)))
(let ((.def_155 (fp.mul RNE .def_154 .def_154)))
(let ((.def_156 (fp.neg .def_155)))
(let ((.def_157 (fp.add RNE b169 .def_156)))
(let ((.def_158 ((_ to_fp 11 53) RNE .def_157)))
(let ((.def_159 ((_ to_fp 8 24) RNE .def_158)))
(let ((.def_426 (fp.neg .def_159)))
(let ((.def_427 (= b1351 .def_426)))
(let ((.def_423 (fp.leq b176 .def_159)))
(let ((.def_424 (not .def_423)))
(let ((.def_419 ((_ to_fp 11 53) RNE b1545)))
(let ((.def_420 (fp.leq .def_419 b174)))
(let ((.def_421 (not .def_420)))
(let ((.def_415 ((_ to_fp 11 53) RNE b1351)))
(let ((.def_416 (fp.leq .def_415 b174)))
(let ((.def_417 (not .def_416)))
(let ((.def_412 (= b1321 b1286)))
(let ((.def_166 ((_ to_fp 11 53) RNE b1286)))
(let ((.def_167 (fp.mul RNE b185 .def_166)))
(let ((.def_168 (fp.mul RNE b1286 b1286)))
(let ((.def_169 (fp.neg .def_168)))
(let ((.def_170 (fp.add RNE b169 .def_169)))
(let ((.def_171 ((_ to_fp 11 53) RNE .def_170)))
(let ((.def_172 (fp.div RNE .def_171 .def_167)))
(let ((.def_173 ((_ to_fp 8 24) RNE .def_172)))
(let ((.def_174 (fp.add RNE b1286 .def_173)))
(let ((.def_175 (fp.mul RNE .def_174 .def_174)))
(let ((.def_176 (fp.neg .def_175)))
(let ((.def_177 (fp.add RNE b169 .def_176)))
(let ((.def_178 ((_ to_fp 11 53) RNE .def_177)))
(let ((.def_179 ((_ to_fp 8 24) RNE .def_178)))
(let ((.def_408 (fp.neg .def_179)))
(let ((.def_409 (= b1316 .def_408)))
(let ((.def_405 (fp.leq b176 .def_179)))
(let ((.def_406 (not .def_405)))
(let ((.def_401 ((_ to_fp 11 53) RNE b1316)))
(let ((.def_402 (fp.leq .def_401 b174)))
(let ((.def_403 (not .def_402)))
(let ((.def_398 (= b1286 b1251)))
(let ((.def_186 ((_ to_fp 11 53) RNE b1251)))
(let ((.def_187 (fp.mul RNE b185 .def_186)))
(let ((.def_188 (fp.mul RNE b1251 b1251)))
(let ((.def_189 (fp.neg .def_188)))
(let ((.def_190 (fp.add RNE b169 .def_189)))
(let ((.def_191 ((_ to_fp 11 53) RNE .def_190)))
(let ((.def_192 (fp.div RNE .def_191 .def_187)))
(let ((.def_193 ((_ to_fp 8 24) RNE .def_192)))
(let ((.def_194 (fp.add RNE b1251 .def_193)))
(let ((.def_195 (fp.mul RNE .def_194 .def_194)))
(let ((.def_196 (fp.neg .def_195)))
(let ((.def_197 (fp.add RNE b169 .def_196)))
(let ((.def_198 ((_ to_fp 11 53) RNE .def_197)))
(let ((.def_199 ((_ to_fp 8 24) RNE .def_198)))
(let ((.def_394 (fp.neg .def_199)))
(let ((.def_395 (= b1281 .def_394)))
(let ((.def_391 (fp.leq b176 .def_199)))
(let ((.def_392 (not .def_391)))
(let ((.def_387 ((_ to_fp 11 53) RNE b1281)))
(let ((.def_388 (fp.leq .def_387 b174)))
(let ((.def_389 (not .def_388)))
(let ((.def_384 (= b1251 b1216)))
(let ((.def_206 ((_ to_fp 11 53) RNE b1216)))
(let ((.def_207 (fp.mul RNE b185 .def_206)))
(let ((.def_208 (fp.mul RNE b1216 b1216)))
(let ((.def_209 (fp.neg .def_208)))
(let ((.def_210 (fp.add RNE b169 .def_209)))
(let ((.def_211 ((_ to_fp 11 53) RNE .def_210)))
(let ((.def_212 (fp.div RNE .def_211 .def_207)))
(let ((.def_213 ((_ to_fp 8 24) RNE .def_212)))
(let ((.def_214 (fp.add RNE b1216 .def_213)))
(let ((.def_215 (fp.mul RNE .def_214 .def_214)))
(let ((.def_216 (fp.neg .def_215)))
(let ((.def_217 (fp.add RNE b169 .def_216)))
(let ((.def_218 ((_ to_fp 11 53) RNE .def_217)))
(let ((.def_219 ((_ to_fp 8 24) RNE .def_218)))
(let ((.def_380 (fp.neg .def_219)))
(let ((.def_381 (= b1246 .def_380)))
(let ((.def_377 (fp.leq b176 .def_219)))
(let ((.def_378 (not .def_377)))
(let ((.def_373 ((_ to_fp 11 53) RNE b1246)))
(let ((.def_374 (fp.leq .def_373 b174)))
(let ((.def_375 (not .def_374)))
(let ((.def_370 (= b1216 b1181)))
(let ((.def_226 ((_ to_fp 11 53) RNE b1181)))
(let ((.def_227 (fp.mul RNE b185 .def_226)))
(let ((.def_228 (fp.mul RNE b1181 b1181)))
(let ((.def_229 (fp.neg .def_228)))
(let ((.def_230 (fp.add RNE b169 .def_229)))
(let ((.def_231 ((_ to_fp 11 53) RNE .def_230)))
(let ((.def_232 (fp.div RNE .def_231 .def_227)))
(let ((.def_233 ((_ to_fp 8 24) RNE .def_232)))
(let ((.def_234 (fp.add RNE b1181 .def_233)))
(let ((.def_235 (fp.mul RNE .def_234 .def_234)))
(let ((.def_236 (fp.neg .def_235)))
(let ((.def_237 (fp.add RNE b169 .def_236)))
(let ((.def_238 ((_ to_fp 11 53) RNE .def_237)))
(let ((.def_239 ((_ to_fp 8 24) RNE .def_238)))
(let ((.def_366 (fp.neg .def_239)))
(let ((.def_367 (= b1211 .def_366)))
(let ((.def_363 (fp.leq b176 .def_239)))
(let ((.def_364 (not .def_363)))
(let ((.def_359 ((_ to_fp 11 53) RNE b1211)))
(let ((.def_360 (fp.leq .def_359 b174)))
(let ((.def_361 (not .def_360)))
(let ((.def_356 (= b1181 b1146)))
(let ((.def_246 ((_ to_fp 11 53) RNE b1146)))
(let ((.def_247 (fp.mul RNE b185 .def_246)))
(let ((.def_248 (fp.mul RNE b1146 b1146)))
(let ((.def_249 (fp.neg .def_248)))
(let ((.def_250 (fp.add RNE b169 .def_249)))
(let ((.def_251 ((_ to_fp 11 53) RNE .def_250)))
(let ((.def_252 (fp.div RNE .def_251 .def_247)))
(let ((.def_253 ((_ to_fp 8 24) RNE .def_252)))
(let ((.def_254 (fp.add RNE b1146 .def_253)))
(let ((.def_255 (fp.mul RNE .def_254 .def_254)))
(let ((.def_256 (fp.neg .def_255)))
(let ((.def_257 (fp.add RNE b169 .def_256)))
(let ((.def_258 ((_ to_fp 11 53) RNE .def_257)))
(let ((.def_259 ((_ to_fp 8 24) RNE .def_258)))
(let ((.def_352 (fp.neg .def_259)))
(let ((.def_353 (= b1176 .def_352)))
(let ((.def_349 (fp.leq b176 .def_259)))
(let ((.def_350 (not .def_349)))
(let ((.def_345 ((_ to_fp 11 53) RNE b1176)))
(let ((.def_346 (fp.leq .def_345 b174)))
(let ((.def_347 (not .def_346)))
(let ((.def_342 (= b1146 b1110)))
(let ((.def_266 ((_ to_fp 11 53) RNE b1110)))
(let ((.def_267 (fp.mul RNE b185 .def_266)))
(let ((.def_268 (fp.mul RNE b1110 b1110)))
(let ((.def_269 (fp.neg .def_268)))
(let ((.def_270 (fp.add RNE b169 .def_269)))
(let ((.def_271 ((_ to_fp 11 53) RNE .def_270)))
(let ((.def_272 (fp.div RNE .def_271 .def_267)))
(let ((.def_273 ((_ to_fp 8 24) RNE .def_272)))
(let ((.def_274 (fp.add RNE b1110 .def_273)))
(let ((.def_275 (fp.mul RNE .def_274 .def_274)))
(let ((.def_276 (fp.neg .def_275)))
(let ((.def_277 (fp.add RNE b169 .def_276)))
(let ((.def_278 ((_ to_fp 11 53) RNE .def_277)))
(let ((.def_279 ((_ to_fp 8 24) RNE .def_278)))
(let ((.def_338 (fp.neg .def_279)))
(let ((.def_339 (= b1141 .def_338)))
(let ((.def_335 (fp.leq b176 .def_279)))
(let ((.def_336 (not .def_335)))
(let ((.def_330 ((_ to_fp 11 53) RNE b1141)))
(let ((.def_332 (fp.leq .def_330 b174)))
(let ((.def_333 (not .def_332)))
(let ((.def_327 (= b1110 b1089)))
(let ((.def_286 ((_ to_fp 11 53) RNE b1089)))
(let ((.def_287 (fp.mul RNE b185 .def_286)))
(let ((.def_288 (fp.mul RNE b1089 b1089)))
(let ((.def_289 (fp.neg .def_288)))
(let ((.def_290 (fp.add RNE b169 .def_289)))
(let ((.def_291 ((_ to_fp 11 53) RNE .def_290)))
(let ((.def_292 (fp.div RNE .def_291 .def_287)))
(let ((.def_293 ((_ to_fp 8 24) RNE .def_292)))
(let ((.def_294 (fp.add RNE b1089 .def_293)))
(let ((.def_295 (fp.mul RNE .def_294 .def_294)))
(let ((.def_296 (fp.neg .def_295)))
(let ((.def_297 (fp.add RNE b169 .def_296)))
(let ((.def_298 ((_ to_fp 11 53) RNE .def_297)))
(let ((.def_299 ((_ to_fp 8 24) RNE .def_298)))
(let ((.def_323 (fp.neg .def_299)))
(let ((.def_324 (= b1105 .def_323)))
(let ((.def_320 (fp.leq b176 .def_299)))
(let ((.def_321 (not .def_320)))
(let ((.def_304 ((_ to_fp 8 24) RNE b652)))
(let ((.def_316 (fp.neg .def_304)))
(let ((.def_317 (= b1084 .def_316)))
(let ((.def_313 (fp.leq b176 .def_304)))
(let ((.def_314 (not .def_313)))
(let ((.def_311 (fp.leq b176 b169)))
(let ((.def_309 (fp.eq b169 b176)))
(let ((.def_310 (not .def_309)))
(let ((.def_312 (and .def_310 .def_311)))
(let ((.def_315 (and .def_312 .def_314)))
(let ((.def_318 (and .def_315 .def_317)))
(let ((.def_306 (= .def_304 b1084)))
(let ((.def_307 (not .def_306)))
(let ((.def_319 (and .def_307 .def_318)))
(let ((.def_322 (and .def_319 .def_321)))
(let ((.def_325 (and .def_322 .def_324)))
(let ((.def_301 (= .def_299 b1105)))
(let ((.def_302 (not .def_301)))
(let ((.def_326 (and .def_302 .def_325)))
(let ((.def_328 (and .def_326 .def_327)))
(let ((.def_284 (= .def_274 b1089)))
(let ((.def_285 (not .def_284)))
(let ((.def_329 (and .def_285 .def_328)))
(let ((.def_334 (and .def_329 .def_333)))
(let ((.def_337 (and .def_334 .def_336)))
(let ((.def_340 (and .def_337 .def_339)))
(let ((.def_281 (= .def_279 b1141)))
(let ((.def_282 (not .def_281)))
(let ((.def_341 (and .def_282 .def_340)))
(let ((.def_343 (and .def_341 .def_342)))
(let ((.def_264 (= .def_254 b1110)))
(let ((.def_265 (not .def_264)))
(let ((.def_344 (and .def_265 .def_343)))
(let ((.def_348 (and .def_344 .def_347)))
(let ((.def_351 (and .def_348 .def_350)))
(let ((.def_354 (and .def_351 .def_353)))
(let ((.def_261 (= .def_259 b1176)))
(let ((.def_262 (not .def_261)))
(let ((.def_355 (and .def_262 .def_354)))
(let ((.def_357 (and .def_355 .def_356)))
(let ((.def_244 (= .def_234 b1146)))
(let ((.def_245 (not .def_244)))
(let ((.def_358 (and .def_245 .def_357)))
(let ((.def_362 (and .def_358 .def_361)))
(let ((.def_365 (and .def_362 .def_364)))
(let ((.def_368 (and .def_365 .def_367)))
(let ((.def_241 (= .def_239 b1211)))
(let ((.def_242 (not .def_241)))
(let ((.def_369 (and .def_242 .def_368)))
(let ((.def_371 (and .def_369 .def_370)))
(let ((.def_224 (= .def_214 b1181)))
(let ((.def_225 (not .def_224)))
(let ((.def_372 (and .def_225 .def_371)))
(let ((.def_376 (and .def_372 .def_375)))
(let ((.def_379 (and .def_376 .def_378)))
(let ((.def_382 (and .def_379 .def_381)))
(let ((.def_221 (= .def_219 b1246)))
(let ((.def_222 (not .def_221)))
(let ((.def_383 (and .def_222 .def_382)))
(let ((.def_385 (and .def_383 .def_384)))
(let ((.def_204 (= .def_194 b1216)))
(let ((.def_205 (not .def_204)))
(let ((.def_386 (and .def_205 .def_385)))
(let ((.def_390 (and .def_386 .def_389)))
(let ((.def_393 (and .def_390 .def_392)))
(let ((.def_396 (and .def_393 .def_395)))
(let ((.def_201 (= .def_199 b1281)))
(let ((.def_202 (not .def_201)))
(let ((.def_397 (and .def_202 .def_396)))
(let ((.def_399 (and .def_397 .def_398)))
(let ((.def_184 (= .def_174 b1251)))
(let ((.def_185 (not .def_184)))
(let ((.def_400 (and .def_185 .def_399)))
(let ((.def_404 (and .def_400 .def_403)))
(let ((.def_407 (and .def_404 .def_406)))
(let ((.def_410 (and .def_407 .def_409)))
(let ((.def_181 (= .def_179 b1316)))
(let ((.def_182 (not .def_181)))
(let ((.def_411 (and .def_182 .def_410)))
(let ((.def_413 (and .def_411 .def_412)))
(let ((.def_164 (= .def_154 b1286)))
(let ((.def_165 (not .def_164)))
(let ((.def_414 (and .def_165 .def_413)))
(let ((.def_418 (and .def_414 .def_417)))
(let ((.def_422 (and .def_418 .def_421)))
(let ((.def_425 (and .def_422 .def_424)))
(let ((.def_428 (and .def_425 .def_427)))
(let ((.def_161 (= .def_159 b1351)))
(let ((.def_162 (not .def_161)))
(let ((.def_429 (and .def_162 .def_428)))
(let ((.def_431 (and .def_429 .def_430)))
(let ((.def_144 (= .def_134 b1321)))
(let ((.def_145 (not .def_144)))
(let ((.def_432 (and .def_145 .def_431)))
(let ((.def_436 (and .def_432 .def_435)))
(let ((.def_439 (and .def_436 .def_438)))
(let ((.def_442 (and .def_439 .def_441)))
(let ((.def_141 (= .def_139 b1386)))
(let ((.def_142 (not .def_141)))
(let ((.def_443 (and .def_142 .def_442)))
(let ((.def_445 (and .def_443 .def_444)))
(let ((.def_124 (= .def_114 b1356)))
(let ((.def_125 (not .def_124)))
(let ((.def_446 (and .def_125 .def_445)))
(let ((.def_450 (and .def_446 .def_449)))
(let ((.def_453 (and .def_450 .def_452)))
(let ((.def_456 (and .def_453 .def_455)))
(let ((.def_121 (= .def_119 b1421)))
(let ((.def_122 (not .def_121)))
(let ((.def_457 (and .def_122 .def_456)))
(let ((.def_459 (and .def_457 .def_458)))
(let ((.def_461 (and .def_459 .def_460)))
(let ((.def_104 (= .def_92 b1391)))
(let ((.def_105 (not .def_104)))
(let ((.def_462 (and .def_105 .def_461)))
(let ((.def_101 (= .def_74 b1426)))
(let ((.def_102 (not .def_101)))
(let ((.def_463 (and .def_102 .def_462)))
(let ((.def_467 (and .def_463 .def_466)))
(let ((.def_470 (and .def_467 .def_469)))
(let ((.def_473 (and .def_470 .def_472)))
(let ((.def_99 (= .def_97 b1456)))
(let ((.def_100 (not .def_99)))
(let ((.def_474 (and .def_100 .def_473)))
(let ((.def_478 (and .def_474 .def_477)))
(let ((.def_481 (and .def_478 .def_480)))
(let ((.def_484 (and .def_481 .def_483)))
(let ((.def_81 (= .def_79 b1491)))
(let ((.def_82 (not .def_81)))
(let ((.def_485 (and .def_82 .def_484)))
(let ((.def_487 (and .def_485 .def_486)))
(let ((.def_64 (= .def_54 b1461)))
(let ((.def_65 (not .def_64)))
(let ((.def_488 (and .def_65 .def_487)))
(let ((.def_492 (and .def_488 .def_491)))
(let ((.def_495 (and .def_492 .def_494)))
(let ((.def_498 (and .def_495 .def_497)))
(let ((.def_61 (= .def_59 b1526)))
(let ((.def_62 (not .def_61)))
(let ((.def_499 (and .def_62 .def_498)))
(let ((.def_501 (and .def_499 .def_500)))
(let ((.def_504 (and .def_501 .def_503)))
(let ((.def_44 (= .def_34 b1496)))
(let ((.def_45 (not .def_44)))
(let ((.def_505 (and .def_45 .def_504)))
(let ((.def_508 (and .def_505 .def_507)))
(let ((.def_511 (and .def_508 .def_510)))
(let ((.def_41 (= .def_39 b1545)))
(let ((.def_42 (not .def_41)))
(let ((.def_512 (and .def_42 .def_511)))
(let ((.def_515 (and .def_512 .def_514)))
(let ((.def_518 (and .def_515 .def_517)))
(let ((.def_522 (and .def_518 .def_521)))
(let ((.def_28 (= .def_26 b1554)))
(let ((.def_29 (not .def_28)))
(let ((.def_523 (and .def_29 .def_522)))
.def_523))))))))))))))))))))))))))))))))))))))))))))))))))))))))))))))))))))))))))))))))))))))))))))))))))))))))))))))))))))))))))))))))))))))))))))))))))))))))))))))))))))))))))))))))))))))))))))))))))))))))))))))))))))))))))))))))))))))))))))))))))))))))))))))))))))))))))))))))))))))))))))))))))))))))))))))))))))))))))))))))))))))))))))))))))))))))))))))))))))))))))))))))))))))))))))))))))))))))))))))))))))))))))))))))))))))))))))))))))))))))))))))))))))))))))))))))))))))))))))))))
(check-sat)
